c 1 CONFIG_TOYSH_PROFILE
c 2 CONFIG_TOYSH_ARRAYS
c 3 CONFIG_DF_PEDANTIC
c 4 CONFIG_TOYSH_PROCARGS
c 5 CONFIG_TOYSH_ENVVARS
c 6 CONFIG_TOYSH_LOCALS
c 7 CONFIG_MKE2FS_LABEL
c 8 CONFIG_TOYSH_FLOWCTL
c 9 CONFIG_TOYSH_JOBCTL
c 10 CONFIG_MKE2FS_EXTENDED
c 11 CONFIG_TOYSH_PIPES
c 12 CONFIG_TOYSH
c 13 CONFIG_MKE2FS_JOURNAL
c 14 CONFIG_TOYSH_TTY
c 15 CONFIG_TOYSH_WILDCARDS
c 16 CONFIG_TOYSH_BUILTINS
c 17 CONFIG_MKE2FS_GEN
c 18 CONFIG_MKE2FS
c 19 CONFIG_TOYSH_QUOTES
c 20 CONFIG_DF
c 21 __Root__
p cnf 21 38
21 0
-11 21 0
-12 21 0
-1 21 0
-14 21 0
-18 21 0
-7 21 0
-19 21 0
-5 21 0
-8 21 0
-2 21 0
-6 21 0
-15 21 0
-20 21 0
-3 21 0
-9 21 0
-4 21 0
-10 21 0
-16 21 0
-17 21 0
-13 21 0
-11 12 0
-1 14 0
-7 18 0
-5 19 0
-8 12 0
-2 6 0
-15 19 0
-3 20 0
-9 14 0
-4 19 0
12 -19 0
12 -14 0
-10 18 0
12 -16 0
-17 18 0
5 -6 0
-13 18 0
